p edge 30 101
e 1 2
e 1 4
e 1 5
e 1 7
e 1 8
e 1 9
e 1 13
e 1 14
e 1 15
e 1 16
e 2 3
e 2 7
e 2 8
e 2 9
e 2 10
e 2 12
e 2 15
e 3 5
e 3 7
e 3 8
e 3 9
e 3 10
e 3 11
e 3 14
e 3 15
e 3 16
e 4 10
e 4 11
e 4 13
e 4 14
e 5 7
e 5 8
e 5 10
e 5 13
e 5 14
e 5 16
e 6 10
e 6 11
e 6 12
e 6 14
e 6 15
e 7 10
e 8 9
e 8 11
e 8 12
e 8 13
e 9 11
e 9 13
e 9 15
e 10 12
e 10 13
e 10 14
e 11 15
e 12 13
e 12 15
e 12 16
e 14 15
e 17 18
e 17 24
e 17 25
e 17 27
e 17 28
e 17 29
e 18 19
e 18 20
e 18 23
e 18 24
e 18 27
e 18 28
e 18 30
e 19 20
e 19 21
e 19 25
e 19 29
e 20 27
e 20 28
e 20 30
e 21 23
e 21 24
e 21 27
e 21 29
e 21 30
e 22 24
e 22 25
e 22 26
e 22 28
e 22 29
e 23 25
e 23 26
e 23 27
e 24 27
e 24 28
e 24 30
e 25 27
e 25 29
e 26 27
e 26 30
e 27 28
e 27 29
e 27 30
e 28 30
